
  17    4
   1   1   1   1

   0   0   0   0   0   8 2 3 4 5 6 7 10 11 
   1   1   0   0   0   4   16   15   13   8
   3   1   0   0   1   3   16   13   12
   8   1   1   0   1   2   9   8
   6   0   1   1   0   2   15   14
   3   0   1   0   1   2   14   12
   6   0   1   0   1   2   13   12
   8   0   0   1   1   1   12
   9   1   0   1   0   1   12
   1   0   0   1   1   1   13
   4   0   0   1   1   1   12
   2   1   0   0   0   1   17
   8   1   1   0   0   1   17
   4   1   0   1   1   1   17
   9   0   0   1   1   1   17
   1   0   1   1   0   1   17
   0   0   0   0   0   0 
